0 0 0 0
0 1 0 0
0 2 0 0
0 3 0 0
0 4 0 4
0 5 0 9
0 6 0 14
0 7 0 9
0 8 0 5
0 9 0 82
0 10 0 8
0 11 0 62
0 12 0 19
0 13 0 26
0 14 0 19
0 15 0 51
0 16 0 5
0 17 0 5
0 18 0 28
0 19 0 60
0 20 0 71
0 21 0 33
0 22 0 50
0 23 0 17
0 24 0 115
0 25 0 37
0 26 0 22
0 27 0 4
0 28 0 71
0 29 0 73
0 30 0 15
0 31 0 20
0 32 0 33
0 33 0 44
0 34 0 44
0 35 0 15
0 36 0 60
0 37 0 38
0 38 0 50
0 39 0 41
0 40 0 98
0 41 0 69
0 42 0 60
0 43 0 33
0 44 0 89
0 45 0 64
0 46 0 117
0 47 0 66
0 48 0 58
0 49 0 41
0 50 0 80
0 51 0 50
0 52 0 117
0 53 0 78
0 54 0 90
0 55 0 98
0 56 0 71
0 57 0 98
0 58 0 79
0 59 0 70
0 60 0 38
0 61 0 90
0 62 0 131
0 63 0 82
0 64 0 93
0 65 0 108
0 66 0 93
0 67 0 125
0 68 0 69
0 69 0 108
0 70 0 102
0 71 0 81
0 72 0 137
0 73 0 115
0 74 0 43
0 75 0 103
0 76 0 98
0 77 0 109
0 78 0 63
0 79 0 113
0 80 0 115
0 81 0 109
0 82 0 126
0 83 0 133
0 84 0 28
0 85 0 131
0 86 0 141
0 87 0 136
0 88 0 108
0 89 0 141
0 90 0 137
0 91 0 145
0 92 0 141
0 93 0 146
0 94 0 153
0 95 0 159
0 96 0 143
0 97 0 153
0 98 0 146
0 99 0 158
0 100 0 133
0 101 0 148
0 102 0 150
0 103 0 160
0 104 0 153
0 105 0 148
0 106 0 131
0 107 0 157
0 108 0 159
0 109 0 163
0 110 0 163
0 111 0 163
0 112 0 159
0 113 0 172
0 114 0 150
0 115 0 172
0 116 0 171
0 117 0 162
0 118 0 178
0 119 0 181
0 120 0 175
0 121 0 182
